1
1000
47
129 1
132 2
135 1
265 1
140 1
141 1
17 1
18 1
257 1
156 1
32 1
162 2
36 1
37 1
167 1
172 1
45 1
46 1
176 1
51 1
180 1
61 1
160 1
203 1
76 1
207 1
82 1
87 1
217 2
218 1
92 1
221 1
100 1
102 1
145 1
105 1
108 1
109 1
112 1
113 1
242 1
116 1
246 1
121 1
250 1
251 1
126 1
